(set-logic QF_S)
(set-option :parse-transducers true)
(set-option :produce-models true)
(define-fun-rec toLower ((x String) (y String)) Bool
   (or (and (= x "") (= y ""))
       (and (not (= x "")) (not (= y ""))
           (= (char.code (str.head y))
               (ite (and (<= 65 (char.code (str.head x)))
                       (<= (char.code (str.head x)) 90))
                   (+ (char.code (str.head x)) 32)
                   (char.code (str.head x))))
           (toLower (str.tail x) (str.tail y))))
)
(declare-fun sym205 () String)
(declare-fun sym547 () String)
(declare-fun sym748 () String)
(declare-fun sym161 () String)
(declare-fun L3  () String)
(declare-fun L4  () String)
(declare-fun L0  () String)
(assert (toLower (str.substr sym547  0 1) L0 ))
(assert (toLower (str.substr sym748  0 1) L4 ))
(assert (toLower (str.substr sym205  0 1) L3 ))

(assert (not (= "" sym161 )))
(assert (not (= "" "y" )))
(assert (not (= "" "q" )))
(assert (= L0 "l" ))
(assert (not (= "" sym205 )))
(assert (not (= L0 "r" )))
(assert (not (= L0 "g" )))
(assert (not (= "" L3 )))
(assert (not (= L4 "q" )))
(assert (not (= L0 "q" )))
(assert (= "" "" ))
(assert (not (= L4 "g" )))
(assert (not (= "" sym547 )))
(assert (not (= L0 "p" )))
(assert (not (= "" "y" )))
(assert (not (= L0 "k" )))
(assert (not (= "y" "n" )))
(assert (= "y" "y" ))
(assert (not (= L4 "r" )))
(assert (not (= L4 "k" )))
(assert (= L3 "y" ))
(assert (not (= "" sym748 )))
(assert (= L4 "l" ))
(assert (not (= L4 "p" )))
(check-sat)
(get-model)
(exit)
